55515
37, 20, 50, 24, 35, 5, 7, 40, 43, 3, 6, 28, 55, 26, 49, 54, 34, 9, 10, 22, 29, 39, 46, 36, 15, 16, 52, 25, 31, 27, 1, 33, 42, 45, 11, 2, 14, 12, 18, 4, 30, 47, 53, 23, 21, 17, 48, 19, 44, 8, 38, 32, 41, 13, 51
